unsat
( c10
  c1010
  c1011
  c104
  c11
  c19
  c23
  c26
  c267
  c271
  c274
  c275
  c277
  c282
  c29
  c297
  c300
  c301
  c316
  c318
  c326
  c328
  c33
  c337
  c339
  c34
  c347
  c353
  c364
  c383
  c399
  c409
  c421
  c432
  c45
  c515
  c519
  c523
  c525
  c529
  c53
  c530
  c545
  c548
  c549
  c564
  c565
  c576
  c584
  c585
  c595
  c599
  c600
  c602
  c612
  c614
  c630
  c631
  c647
  c648
  c659
  c669
  c670
  c68
  c680
  c687
  c688
  c689
  c74
  c763
  c767
  c771
  c777
  c778
  c78
  c79
  c796
  c797
  c8
  c80
  c814
  c824
  c832
  c836
  c838
  c839
  c843
  c847
  c849
  c851
  c867
  c873
  c874
  c88
  c886
  c89
  c896
  c9
  c906
  c91
  c913
  c914
  c915
  c980
  c985
  c99
  c998
  c999 )
